Set parameter TokenServer to value "hpc-licenses.hpcc.usc.edu"
Set parameter TimeLimit to value 3600
Gurobi Optimizer version 9.5.1 build v9.5.1rc2 (linux64)
Thread count: 20 physical cores, 20 logical processors, using up to 20 threads
Optimize a model with 6007 rows, 4529 columns and 24534 nonzeros
Model fingerprint: 0x54817143
Variable types: 4506 continuous, 23 integer (23 binary)
Coefficient statistics:
  Matrix range     [1e+00, 1e+00]
  Objective range  [2e-03, 1e+00]
  Bounds range     [1e+00, 1e+00]
  RHS range        [1e+00, 2e+02]
Presolve removed 1520 rows and 1515 columns
Presolve time: 0.04s
Presolved: 4487 rows, 3014 columns, 21975 nonzeros
Variable types: 2994 continuous, 20 integer (20 binary)
Found heuristic solution: objective 278.8341798

Root relaxation: objective 2.893970e+02, 3441 iterations, 0.09 seconds (0.16 work units)

    Nodes    |    Current Node    |     Objective Bounds      |     Work
 Expl Unexpl |  Obj  Depth IntInf | Incumbent    BestBd   Gap | It/Node Time

     0     0  289.39699    0    2  278.83418  289.39699  3.79%     -    0s
     0     0  289.34578    0    2  278.83418  289.34578  3.77%     -    0s
     0     0  289.22733    0    2  278.83418  289.22733  3.73%     -    0s
H    0     0                     279.3765515  289.01489  3.45%     -    0s
     0     0  289.01489    0    2  279.37655  289.01489  3.45%     -    0s
     0     0  289.01218    0    4  279.37655  289.01218  3.45%     -    0s
     0     0  289.00744    0    5  279.37655  289.00744  3.45%     -    0s
H    0     0                     288.9192768  289.00052  0.03%     -    0s
     0     0  288.91928    0    4  288.91928  288.91928  0.00%     -    0s

Cutting planes:
  Gomory: 3
  MIR: 197
  RLT: 9
  Relax-and-lift: 12

Explored 1 nodes (4496 simplex iterations) in 0.65 seconds (0.68 work units)
Thread count was 20 (of 20 available processors)

Solution count 3: 288.919 279.377 278.834 

Optimal solution found (tolerance 1.00e-04)
Best objective 2.889192768499e+02, best bound 2.889192768499e+02, gap 0.0000%



#########node  1
V1.6
#########node  2
0.015151515151515152,0.9848484848484849
#########node  3
1.0,0.0


Total Solving Time 1.000107765197754
obj value 288.91927684990685
Policy Regret train (Sum) 1.2397053270686504
Best Treatment Found train (%) 86.8
treatment classification acc train (%) 30.4
Policy Regret test (Sum) 26.7565594125534
Best Treatment Found test (%) 84.76
treatment classification acc test (%) 30.89
